p min 157 413
n 1 4
n 83 -1
n 145 -1
n 146 -1
n 147 -1
a 1 2 0 1 0
a 1 13 0 1 0
a 1 42 0 1 0
a 1 43 0 1 0
a 2 3 0 4 0
a 2 26 0 4 78887
a 2 44 0 4 118212
a 2 96 0 4 -100
a 3 4 0 4 0
a 3 28 0 4 78808
a 3 46 0 4 118094
a 3 97 0 4 -100
a 4 5 0 4 0
a 4 30 0 4 78729
a 4 48 0 4 117976
a 4 98 0 4 -100
a 4 151 0 1 0
a 5 6 0 4 0
a 5 31 0 4 78690
a 5 49 0 4 117917
a 5 99 0 4 -100
a 5 151 0 1 39199
a 6 7 0 4 0
a 6 32 0 4 78651
a 6 100 0 4 -100
a 6 151 0 1 100664
a 7 8 0 4 0
a 7 33 0 4 78611
a 7 101 0 4 -100
a 7 151 0 1 138312
a 8 9 0 4 0
a 8 34 0 4 78572
a 8 102 0 4 -100
a 8 151 0 1 197343
a 8 157 0 1 0
a 9 10 0 4 0
a 9 103 0 4 -100
a 9 151 0 1 233500
a 9 157 0 1 39198
a 10 11 0 4 0
a 10 104 0 4 -100
a 10 157 0 1 100663
a 11 12 0 4 0
a 11 105 0 4 -100
a 11 157 0 1 138311
a 12 35 0 4 77868
a 12 50 0 4 116919
a 12 106 0 4 -100
a 12 157 0 1 197342
a 13 14 0 4 0
a 13 83 0 4 -100
a 14 15 0 4 0
a 14 84 0 4 -100
a 14 150 0 1 0
a 15 16 0 4 0
a 15 85 0 4 -100
a 15 150 0 1 39199
a 16 17 0 4 0
a 16 43 0 4 79680
a 16 86 0 4 -100
a 16 150 0 1 100664
a 17 18 0 4 0
a 17 87 0 4 -100
a 17 150 0 1 138312
a 18 19 0 4 0
a 18 88 0 4 -100
a 18 150 0 1 197343
a 19 20 0 4 0
a 19 89 0 4 -100
a 19 150 0 1 233500
a 20 21 0 4 0
a 20 90 0 4 -100
a 20 154 0 1 0
a 21 22 0 4 0
a 21 91 0 4 -100
a 21 154 0 1 39199
a 22 23 0 4 0
a 22 92 0 4 -100
a 22 154 0 1 100664
a 23 24 0 4 0
a 23 93 0 4 -100
a 23 154 0 1 138312
a 24 25 0 4 0
a 24 94 0 4 -100
a 24 154 0 1 197343
a 25 2 0 4 79283
a 25 26 0 4 0
a 25 44 0 4 78808
a 25 95 0 4 -100
a 25 154 0 1 233500
a 26 8 0 4 78729
a 26 27 0 4 0
a 26 46 0 4 78729
a 26 98 0 4 -100
a 26 155 0 1 0
a 27 9 0 4 78690
a 27 28 0 4 0
a 27 47 0 4 78690
a 27 99 0 4 -100
a 27 155 0 1 39199
a 28 10 0 4 78651
a 28 29 0 4 0
a 28 48 0 4 78651
a 28 100 0 4 -100
a 28 155 0 1 100664
a 29 11 0 4 78611
a 29 30 0 4 0
a 29 49 0 4 78611
a 29 101 0 4 -100
a 29 155 0 1 138312
a 30 12 0 4 78572
a 30 31 0 4 0
a 30 102 0 4 -100
a 30 155 0 1 197343
a 31 32 0 4 0
a 31 103 0 4 -100
a 31 155 0 1 233500
a 32 33 0 4 0
a 32 104 0 4 -100
a 32 155 0 1 290194
a 33 34 0 4 0
a 33 105 0 4 -100
a 33 155 0 1 324919
a 34 35 0 4 0
a 34 50 0 4 77946
a 34 106 0 4 -100
a 34 155 0 1 379368
a 35 36 0 4 0
a 35 55 0 4 77712
a 35 108 0 4 -100
a 36 37 0 4 0
a 36 139 0 4 -100
a 36 152 0 1 0
a 37 38 0 4 0
a 37 140 0 4 -100
a 37 152 0 1 39199
a 38 39 0 4 0
a 38 141 0 4 -100
a 38 152 0 1 100664
a 39 40 0 4 0
a 39 142 0 4 -100
a 39 152 0 1 138312
a 40 41 0 4 0
a 40 143 0 4 -100
a 40 152 0 1 197343
a 41 82 0 4 73774
a 41 144 0 4 -100
a 42 18 0 4 79768
a 42 43 0 4 0
a 42 84 0 4 -100
a 43 2 0 4 118924
a 43 24 0 4 79529
a 43 44 0 4 0
a 43 90 0 4 -100
a 44 12 0 4 117858
a 44 32 0 4 78659
a 44 45 0 4 0
a 44 100 0 4 -100
a 44 153 0 1 0
a 45 33 0 4 78619
a 45 46 0 4 0
a 45 101 0 4 -100
a 45 153 0 1 39199
a 46 34 0 4 78580
a 46 47 0 4 0
a 46 102 0 4 -100
a 46 153 0 1 100664
a 47 48 0 4 0
a 47 103 0 4 -100
a 47 153 0 1 138312
a 48 49 0 4 0
a 48 104 0 4 -100
a 48 153 0 1 197343
a 49 35 0 4 77876
a 49 50 0 4 0
a 49 105 0 4 -100
a 49 153 0 1 233500
a 50 51 0 4 0
a 50 107 0 4 -100
a 51 52 0 4 0
a 51 108 0 4 -100
a 51 149 0 1 0
a 52 53 0 4 0
a 52 109 0 4 -100
a 52 149 0 1 39199
a 53 54 0 4 0
a 53 110 0 4 -100
a 53 149 0 1 100664
a 54 55 0 4 0
a 54 111 0 4 -100
a 54 149 0 1 138312
a 55 56 0 4 0
a 55 112 0 4 -100
a 55 149 0 1 197343
a 56 57 0 4 0
a 56 113 0 4 -100
a 56 149 0 1 233500
a 57 58 0 4 0
a 57 114 0 4 -100
a 57 149 0 1 290194
a 58 59 0 4 0
a 58 115 0 4 -100
a 58 156 0 1 0
a 59 60 0 4 0
a 59 116 0 4 -100
a 59 156 0 1 39199
a 60 61 0 4 0
a 60 117 0 4 -100
a 60 156 0 1 100664
a 61 62 0 4 0
a 61 118 0 4 -100
a 61 156 0 1 138312
a 62 63 0 4 0
a 62 119 0 4 -100
a 62 156 0 1 197343
a 63 64 0 4 0
a 63 120 0 4 -100
a 63 156 0 1 233500
a 64 65 0 4 0
a 64 121 0 4 -100
a 64 156 0 1 290194
a 65 66 0 4 0
a 65 122 0 4 -100
a 65 156 0 1 324919
a 66 67 0 4 0
a 66 123 0 4 -100
a 66 156 0 1 379368
a 67 68 0 4 0
a 67 124 0 4 -100
a 67 156 0 1 412718
a 68 69 0 4 0
a 68 125 0 4 -100
a 68 156 0 1 465011
a 69 70 0 4 0
a 69 126 0 4 -100
a 69 156 0 1 497040
a 70 71 0 4 0
a 70 127 0 4 -100
a 70 156 0 1 547262
a 71 72 0 4 0
a 71 128 0 4 -100
a 71 156 0 1 578023
a 72 73 0 4 0
a 72 129 0 4 -100
a 72 156 0 1 626256
a 73 74 0 4 0
a 73 130 0 4 -100
a 73 156 0 1 655798
a 74 75 0 4 0
a 74 131 0 4 -100
a 74 156 0 1 702121
a 75 76 0 4 0
a 75 132 0 4 -100
a 75 156 0 1 730494
a 76 77 0 4 0
a 76 133 0 4 -100
a 76 156 0 1 774983
a 77 78 0 4 0
a 77 134 0 4 -100
a 77 156 0 1 802232
a 78 79 0 4 0
a 78 135 0 4 -100
a 78 156 0 1 844959
a 79 80 0 4 0
a 79 136 0 4 -100
a 79 156 0 1 871129
a 80 81 0 4 0
a 80 137 0 4 -100
a 80 156 0 1 912164
a 81 36 0 4 76410
a 81 82 0 4 0
a 81 138 0 4 -100
a 81 156 0 1 937298
a 82 148 0 4 -100
a 83 84 0 4 -100
a 84 83 0 4 19980
a 84 85 0 4 -100
a 85 84 0 4 9985
a 85 86 0 4 -100
a 86 85 0 4 9980
a 86 87 0 4 -100
a 87 86 0 4 9975
a 87 88 0 4 -100
a 88 87 0 4 9970
a 88 89 0 4 -100
a 89 88 0 4 9965
a 89 90 0 4 -100
a 90 89 0 4 9960
a 90 91 0 4 -100
a 91 90 0 4 9955
a 91 92 0 4 -100
a 92 91 0 4 9950
a 92 93 0 4 -100
a 93 92 0 4 9945
a 93 94 0 4 -100
a 94 93 0 4 9940
a 94 95 0 4 -100
a 95 94 0 4 9935
a 95 96 0 4 -100
a 96 95 0 4 49551
a 96 97 0 4 -100
a 97 96 0 4 78966
a 97 98 0 4 -100
a 98 97 0 4 19721
a 98 99 0 4 -100
a 99 98 0 4 9856
a 99 100 0 4 -100
a 100 99 0 4 9851
a 100 101 0 4 -100
a 101 100 0 4 9846
a 101 102 0 4 -100
a 102 101 0 4 9841
a 102 103 0 4 -100
a 103 102 0 4 9836
a 103 104 0 4 -100
a 104 103 0 4 9831
a 104 105 0 4 -100
a 105 104 0 4 9826
a 105 106 0 4 -100
a 106 105 0 4 9821
a 106 107 0 4 -100
a 107 106 0 4 155892
a 107 108 0 4 -100
a 108 107 0 4 19467
a 108 109 0 4 -100
a 109 108 0 4 9728
a 109 110 0 4 -100
a 110 109 0 4 9723
a 110 111 0 4 -100
a 111 110 0 4 9718
a 111 112 0 4 -100
a 112 111 0 4 9714
a 112 113 0 4 -100
a 113 112 0 4 9709
a 113 114 0 4 -100
a 114 113 0 4 9704
a 114 115 0 4 -100
a 115 114 0 4 19389
a 115 116 0 4 -100
a 116 115 0 4 9689
a 116 117 0 4 -100
a 117 116 0 4 9684
a 117 118 0 4 -100
a 118 117 0 4 9680
a 118 119 0 4 -100
a 119 118 0 4 9675
a 119 120 0 4 -100
a 120 119 0 4 9670
a 120 121 0 4 -100
a 121 120 0 4 9665
a 121 122 0 4 -100
a 122 121 0 4 9660
a 122 123 0 4 -100
a 123 122 0 4 9655
a 123 124 0 4 -100
a 124 123 0 4 9651
a 124 125 0 4 -100
a 125 124 0 4 9646
a 125 126 0 4 -100
a 126 125 0 4 9641
a 126 127 0 4 -100
a 127 126 0 4 9636
a 127 128 0 4 -100
a 128 127 0 4 9631
a 128 129 0 4 -100
a 129 128 0 4 9627
a 129 130 0 4 -100
a 130 129 0 4 9622
a 130 131 0 4 -100
a 131 130 0 4 9617
a 131 132 0 4 -100
a 132 131 0 4 9612
a 132 133 0 4 -100
a 133 132 0 4 9607
a 133 134 0 4 -100
a 134 133 0 4 9602
a 134 135 0 4 -100
a 135 134 0 4 9598
a 135 136 0 4 -100
a 136 135 0 4 9593
a 136 137 0 4 -100
a 137 136 0 4 9588
a 137 138 0 4 -100
a 138 137 0 4 9583
a 138 139 0 4 -100
a 139 138 0 4 66852
a 139 140 0 4 -100
a 140 139 0 4 9545
a 140 141 0 4 -100
a 141 140 0 4 9540
a 141 142 0 4 -100
a 142 141 0 4 9535
a 142 143 0 4 -100
a 143 142 0 4 9531
a 143 144 0 4 -100
a 144 143 0 4 263163
a 144 145 0 4 -100
a 145 144 0 4 74889
a 145 146 0 4 -100
a 146 145 0 4 148584
a 146 147 0 4 -100
a 147 146 0 4 110771
a 147 148 0 4 -100
a 148 147 0 4 18443
a 149 76 0 1 -291927
a 150 28 0 1 -239759
a 151 50 0 1 -236565
a 152 41 0 1 -210010
a 153 72 0 1 -256208
a 154 3 0 1 -259001
a 155 60 0 1 -394430
a 156 82 0 1 -969384
a 157 35 0 1 -221478
